p cnf 141 513
51 54 56 62 0
49 59 0
19 39 41 48 52 0
15 35 63 70 88 0
69 76 90 0
77 80 82 133 0
25 36 55 60 0
86 87 0
16 17 42 0
31 137 0
28 29 37 0
26 45 84 139 0
23 44 0
74 120 0
20 78 127 0
50 108 113 0
34 67 0
14 18 40 47 0
38 58 64 71 0
89 91 92 0
32 93 0
24 81 85 0
75 95 0
21 96 0
68 98 0
12 43 0
61 66 72 135 0
27 83 0
46 99 100 0
22 103 104 0
105 124 0
107 109 110 111 0
114 116 0
-49 -62 0
-15 -62 0
-62 -90 0
-36 -62 0
-15 -49 0
-49 -90 0
-36 -49 0
-15 -90 0
-15 -36 0
-36 -90 0
-86 -118 0
-13 -86 0
-73 -86 0
-26 -86 0
-13 -118 0
-73 -118 0
-26 -118 0
-13 -73 0
-13 -26 0
-26 -73 0
-23 -101 0
-23 -74 0
-23 -127 0
-23 -112 0
-74 -101 0
-101 -127 0
-101 -112 0
-74 -127 0
-74 -112 0
-112 -127 0
-34 -57 0
-38 -57 0
-57 -89 0
-57 -81 0
-34 -38 0
-34 -89 0
-34 -81 0
-38 -89 0
-38 -81 0
-81 -89 0
-46 -119 0
-46 -103 0
-46 -121 0
-46 -114 0
-103 -119 0
-119 -121 0
-114 -119 0
-103 -121 0
-103 -114 0
-114 -121 0
-62 -86 0
-23 -62 0
-57 -62 0
-46 -62 0
-23 -86 0
-57 -86 0
-46 -86 0
-23 -57 0
-23 -46 0
-46 -57 0
-49 -118 0
-49 -101 0
-34 -49 0
-49 -119 0
-101 -118 0
-34 -118 0
-118 -119 0
-34 -101 0
-101 -119 0
-34 -119 0
-13 -15 0
-15 -74 0
-15 -38 0
-15 -103 0
-13 -74 0
-13 -38 0
-13 -103 0
-38 -74 0
-74 -103 0
-38 -103 0
-73 -90 0
-90 -127 0
-89 -90 0
-90 -121 0
-73 -127 0
-73 -89 0
-73 -121 0
-89 -127 0
-121 -127 0
-89 -121 0
-26 -36 0
-36 -112 0
-36 -81 0
-36 -114 0
-26 -112 0
-26 -81 0
-26 -114 0
-81 -112 0
-112 -114 0
-81 -114 0
-48 -69 0
-48 -94 0
-48 -133 0
-69 -94 0
-69 -133 0
-94 -133 0
-20 -123 0
-123 -125 0
-108 -123 0
-20 -125 0
-20 -108 0
-108 -125 0
-18 -91 0
-18 -32 0
-18 -30 0
-32 -91 0
-30 -91 0
-30 -32 0
-126 -128 0
-105 -126 0
-107 -126 0
-105 -128 0
-107 -128 0
-105 -107 0
-48 -123 0
-18 -48 0
-48 -126 0
-18 -123 0
-123 -126 0
-18 -126 0
-20 -69 0
-69 -91 0
-69 -128 0
-20 -91 0
-20 -128 0
-91 -128 0
-94 -125 0
-32 -94 0
-94 -105 0
-32 -125 0
-105 -125 0
-32 -105 0
-108 -133 0
-30 -133 0
-107 -133 0
-30 -108 0
-107 -108 0
-30 -107 0
-52 -56 0
-56 -129 0
-56 -77 0
-56 -60 0
-52 -129 0
-52 -77 0
-52 -60 0
-77 -129 0
-60 -129 0
-60 -77 0
-42 -87 0
-87 -137 0
-29 -87 0
-87 -139 0
-42 -137 0
-29 -42 0
-42 -139 0
-29 -137 0
-137 -139 0
-29 -139 0
-44 -130 0
-44 -131 0
-44 -50 0
-44 -115 0
-130 -131 0
-50 -130 0
-115 -130 0
-50 -131 0
-115 -131 0
-50 -115 0
-47 -132 0
-93 -132 0
-132 -134 0
-85 -132 0
-47 -93 0
-47 -134 0
-47 -85 0
-93 -134 0
-85 -93 0
-85 -134 0
-99 -122 0
-99 -124 0
-99 -109 0
-99 -116 0
-122 -124 0
-109 -122 0
-116 -122 0
-109 -124 0
-116 -124 0
-109 -116 0
-56 -87 0
-44 -56 0
-56 -132 0
-56 -99 0
-44 -87 0
-87 -132 0
-87 -99 0
-44 -132 0
-44 -99 0
-99 -132 0
-42 -52 0
-52 -130 0
-47 -52 0
-52 -122 0
-42 -130 0
-42 -47 0
-42 -122 0
-47 -130 0
-122 -130 0
-47 -122 0
-129 -137 0
-129 -131 0
-93 -129 0
-124 -129 0
-131 -137 0
-93 -137 0
-124 -137 0
-93 -131 0
-124 -131 0
-93 -124 0
-29 -77 0
-50 -77 0
-77 -134 0
-77 -109 0
-29 -50 0
-29 -134 0
-29 -109 0
-50 -134 0
-50 -109 0
-109 -134 0
-60 -139 0
-60 -115 0
-60 -85 0
-60 -116 0
-115 -139 0
-85 -139 0
-116 -139 0
-85 -115 0
-115 -116 0
-85 -116 0
-19 -35 0
-19 -33 0
-19 -25 0
-33 -35 0
-25 -35 0
-25 -33 0
-17 -136 0
-17 -31 0
-17 -84 0
-31 -136 0
-84 -136 0
-31 -84 0
-95 -96 0
-95 -106 0
-95 -117 0
-96 -106 0
-96 -117 0
-106 -117 0
-43 -61 0
-43 -138 0
-43 -140 0
-61 -138 0
-61 -140 0
-138 -140 0
-17 -19 0
-19 -95 0
-19 -43 0
-17 -95 0
-17 -43 0
-43 -95 0
-35 -136 0
-35 -96 0
-35 -61 0
-96 -136 0
-61 -136 0
-61 -96 0
-31 -33 0
-33 -106 0
-33 -138 0
-31 -106 0
-31 -138 0
-106 -138 0
-25 -84 0
-25 -117 0
-25 -140 0
-84 -117 0
-84 -140 0
-117 -140 0
-65 -97 0
-28 -97 0
-28 -65 0
-68 -135 0
-68 -83 0
-83 -135 0
-104 -141 0
-110 -141 0
-104 -110 0
-68 -97 0
-97 -141 0
-68 -141 0
-65 -135 0
-65 -104 0
-104 -135 0
-28 -83 0
-28 -110 0
-83 -110 0
-54 -59 0
-54 -63 0
-59 -63 0
-11 -67 0
-11 -58 0
-58 -67 0
-10 -98 0
-10 -66 0
-66 -98 0
-11 -54 0
-10 -54 0
-10 -11 0
-59 -67 0
-59 -98 0
-67 -98 0
-58 -63 0
-63 -66 0
-58 -66 0
-41 -51 0
-51 -70 0
-51 -80 0
-41 -70 0
-41 -80 0
-70 -80 0
-14 -53 0
-53 -64 0
-9 -53 0
-14 -64 0
-9 -14 0
-9 -64 0
-8 -12 0
-8 -72 0
-8 -27 0
-12 -72 0
-12 -27 0
-27 -72 0
-7 -100 0
-22 -100 0
-100 -111 0
-7 -22 0
-7 -111 0
-22 -111 0
-51 -53 0
-8 -51 0
-51 -100 0
-8 -53 0
-53 -100 0
-8 -100 0
-14 -41 0
-12 -41 0
-7 -41 0
-12 -14 0
-7 -14 0
-7 -12 0
-64 -70 0
-70 -72 0
-22 -70 0
-64 -72 0
-22 -64 0
-22 -72 0
-9 -80 0
-27 -80 0
-80 -111 0
-9 -27 0
-9 -111 0
-27 -111 0
-39 -88 0
-39 -76 0
-39 -82 0
-39 -55 0
-76 -88 0
-82 -88 0
-55 -88 0
-76 -82 0
-55 -76 0
-55 -82 0
-6 -16 0
-5 -16 0
-16 -37 0
-16 -45 0
-5 -6 0
-6 -37 0
-6 -45 0
-5 -37 0
-5 -45 0
-37 -45 0
-102 -120 0
-78 -102 0
-102 -113 0
-4 -102 0
-78 -120 0
-113 -120 0
-4 -120 0
-78 -113 0
-4 -78 0
-4 -113 0
-40 -71 0
-40 -92 0
-40 -79 0
-24 -40 0
-71 -92 0
-71 -79 0
-24 -71 0
-79 -92 0
-24 -92 0
-24 -79 0
-21 -75 0
-3 -75 0
-2 -75 0
-1 -75 0
-3 -21 0
-2 -21 0
-1 -21 0
-2 -3 0
-1 -3 0
-1 -2 0
-16 -39 0
-39 -102 0
-39 -40 0
-39 -75 0
-16 -102 0
-16 -40 0
-16 -75 0
-40 -102 0
-75 -102 0
-40 -75 0
-6 -88 0
-88 -120 0
-71 -88 0
-21 -88 0
-6 -120 0
-6 -71 0
-6 -21 0
-71 -120 0
-21 -120 0
-21 -71 0
-5 -76 0
-76 -78 0
-76 -92 0
-3 -76 0
-5 -78 0
-5 -92 0
-3 -5 0
-78 -92 0
-3 -78 0
-3 -92 0
-37 -82 0
-82 -113 0
-79 -82 0
-2 -82 0
-37 -113 0
-37 -79 0
-2 -37 0
-79 -113 0
-2 -113 0
-2 -79 0
-45 -55 0
-4 -55 0
-24 -55 0
-1 -55 0
-4 -45 0
-24 -45 0
-1 -45 0
-4 -24 0
-1 -4 0
-1 -24 0
